
Gurobi 9.5.1 (linux64) logging started Tue Jun 14 13:27:12 2022

Set parameter LogFile to value "../results/logs/log_com-youtube.ungraph_20_20_2022_06_14_13_27.log"
Gurobi Optimizer version 9.5.1 build v9.5.1rc2 (linux64)
Thread count: 8 physical cores, 8 logical processors, using up to 8 threads
Optimize a model with 2269781 rows, 2269780 columns and 16490056 nonzeros
Model fingerprint: 0x469cc9a1
Variable types: 0 continuous, 2269780 integer (2269780 binary)
Coefficient statistics:
  Matrix range     [1e+00, 2e+01]
  Objective range  [1e+00, 1e+00]
  Bounds range     [1e+00, 1e+00]
  RHS range        [1e+00, 2e+01]
Found heuristic solution: objective -0.0000000
Presolve removed 2094754 rows and 1350181 columns (presolve time = 5s) ...
Presolve removed 2128096 rows and 1859950 columns (presolve time = 10s) ...
Presolve removed 2128096 rows and 1860145 columns (presolve time = 16s) ...
Presolve removed 2128097 rows and 1889910 columns (presolve time = 20s) ...
Presolve removed 2128097 rows and 1889910 columns (presolve time = 25s) ...
Presolve removed 2187750 rows and 1908471 columns (presolve time = 30s) ...
Presolve removed 2187751 rows and 1929444 columns (presolve time = 35s) ...
Presolve removed 2187785 rows and 1929445 columns (presolve time = 40s) ...
Presolve removed 2187786 rows and 1929446 columns (presolve time = 45s) ...
Presolve removed 2187786 rows and 1929446 columns
Presolve time: 47.35s
Presolved: 81995 rows, 340334 columns, 4742228 nonzeros
Variable types: 0 continuous, 340334 integer (303709 binary)
Found heuristic solution: objective 1.0000000

Deterministic concurrent LP optimizer: primal simplex, dual simplex, and barrier
Showing barrier log only...

Root barrier log...

Elapsed ordering time = 5s
Elapsed ordering time = 10s
Elapsed ordering time = 15s
Elapsed ordering time = 20s
Elapsed ordering time = 25s
Elapsed ordering time = 30s
Elapsed ordering time = 35s
Elapsed ordering time = 40s
Elapsed ordering time = 45s
Elapsed ordering time = 50s
Elapsed ordering time = 55s
Elapsed ordering time = 55s
Elapsed ordering time = 60s
Elapsed ordering time = 65s
Elapsed ordering time = 70s
Elapsed ordering time = 75s
Elapsed ordering time = 80s
Elapsed ordering time = 87s
Elapsed ordering time = 90s
Elapsed ordering time = 95s
Elapsed ordering time = 100s
Elapsed ordering time = 104s
Elapsed ordering time = 105s
Elapsed ordering time = 110s
Elapsed ordering time = 115s
Ordering time: 119.55s

Barrier statistics:
 Dense cols : 1434
 AA' NZ     : 2.650e+07
 Factor NZ  : 6.567e+08 (roughly 5.0 GB of memory)
 Factor Ops : 1.432e+13 (roughly 45 seconds per iteration)
 Threads    : 6

                  Objective                Residual
Iter       Primal          Dual         Primal    Dual     Compl     Time
   0   3.06063501e+04  4.74652026e+04  7.45e+05 3.98e-01  2.24e+00   213s
   1   3.38309578e+04  5.92487501e+04  4.30e+05 3.30e-01  1.27e+00   247s
   2   3.51081319e+04  6.02649147e+04  2.43e+05 2.29e-01  7.40e-01   283s
   3   3.62143030e+04  6.01952692e+04  1.30e+05 1.51e-01  4.20e-01   320s

Barrier performed 3 iterations in 356.98 seconds (540.95 work units)
Barrier solve interrupted - model solved by another algorithm

Concurrent spin time: 0.32s

Solved with dual simplex

Root relaxation: objective 3.286246e+04, 46964 iterations, 307.58 seconds (412.24 work units)

    Nodes    |    Current Node    |     Objective Bounds      |     Work
 Expl Unexpl |  Obj  Depth IntInf | Incumbent    BestBd   Gap | It/Node Time

     0     0 32862.4580    0 18881    1.00000 32862.4580      -     -  383s
     0     0 29687.3537    0 16301    1.00000 29687.3537      -     -  729s
H    0     0                    18900.000000 29687.3537  57.1%     -  731s
H    0     0                    19030.000000 29687.3537  56.0%     -  775s
     0     0 26666.9501    0 13079 19030.0000 26666.9501  40.1%     -  843s
     0     0 24644.1968    0 10023 19030.0000 24644.1968  29.5%     -  902s
     0     0 23670.7832    0 7135 19030.0000 23670.7832  24.4%     -  937s
     0     0 23472.5145    0 5763 19030.0000 23472.5145  23.3%     -  948s
     0     0 23436.4361    0 5681 19030.0000 23436.4361  23.2%     -  954s
     0     0 23430.1845    0 5589 19030.0000 23430.1845  23.1%     -  957s
     0     0 23428.8871    0 5567 19030.0000 23428.8871  23.1%     -  959s
     0     0 23428.4204    0 5512 19030.0000 23428.4204  23.1%     -  960s
     0     0 22041.4159    0 4818 19030.0000 22041.4159  15.8%     - 1005s
     0     0 21432.0182    0 4653 19030.0000 21432.0182  12.6%     - 1058s
     0     0 21295.6780    0 4841 19030.0000 21295.6780  11.9%     - 1081s
     0     0 21256.2858    0 4604 19030.0000 21256.2858  11.7%     - 1094s
     0     0 21246.1138    0 4451 19030.0000 21246.1138  11.6%     - 1101s
     0     0 21240.4300    0 4541 19030.0000 21240.4300  11.6%     - 1106s
     0     0 21236.9156    0 4604 19030.0000 21236.9156  11.6%     - 1110s
     0     0 20736.9875    0 4800 19030.0000 20736.9875  8.97%     - 1262s
H    0     0                    19058.000000 20736.9875  8.81%     - 1474s
     0     0 20464.9963    0 5109 19058.0000 20464.9963  7.38%     - 1540s
     0     0 20376.6111    0 4748 19058.0000 20376.6111  6.92%     - 1588s
     0     0 20345.5521    0 5074 19058.0000 20345.5521  6.76%     - 1617s
     0     0 20334.6897    0 4994 19058.0000 20334.6897  6.70%     - 1638s
     0     0 20327.6388    0 5176 19058.0000 20327.6388  6.66%     - 1652s
     0     0 20323.3587    0 5256 19058.0000 20323.3587  6.64%     - 1665s
     0     0 20165.9179    0 4546 19058.0000 20165.9179  5.81%     - 1877s
     0     0 20080.7993    0 5251 19058.0000 20080.7993  5.37%     - 1975s
     0     0 20046.3108    0 6046 19058.0000 20046.3108  5.19%     - 2044s
     0     0 20028.5024    0 5719 19058.0000 20028.5024  5.09%     - 2099s
     0     0 20018.9417    0 5299 19058.0000 20018.9417  5.04%     - 2139s
     0     0 20011.3730    0 5993 19058.0000 20011.3730  5.00%     - 2177s
     0     0 20005.7371    0 5773 19058.0000 20005.7371  4.97%     - 2208s
     0     0 19940.8553    0 6185 19058.0000 19940.8553  4.63%     - 2359s
     0     0 19908.6385    0 6278 19058.0000 19908.6385  4.46%     - 2468s
     0     0 19893.1719    0 6414 19058.0000 19893.1719  4.38%     - 2542s
     0     0 19884.0499    0 6528 19058.0000 19884.0499  4.33%     - 2600s
     0     0 19877.1889    0 6711 19058.0000 19877.1889  4.30%     - 2646s
     0     0 19872.8446    0 6710 19058.0000 19872.8446  4.28%     - 2688s
     0     0 19830.8401    0 6018 19058.0000 19830.8401  4.06%     - 2816s
     0     0 19807.6392    0 6396 19058.0000 19807.6392  3.93%     - 3283s
     0     0 19796.0166    0 6656 19058.0000 19796.0166  3.87%     - 3350s
     0     0 19788.7188    0 7029 19058.0000 19788.7188  3.83%     - 3408s
     0     0 19784.3537    0 7207 19058.0000 19784.3537  3.81%     - 3459s
     0     0 19756.7030    0 6404 19058.0000 19756.7030  3.67%     - 3581s

Cutting planes:
  Gomory: 48
  Cover: 1256
  Implied bound: 1310
  MIR: 8010
  StrongCG: 600
  GUB cover: 11163
  Zero half: 49
  RLT: 2743

Explored 1 nodes (341005 simplex iterations) in 3601.20 seconds (6842.84 work units)
Thread count was 8 (of 8 available processors)

Solution count 5: 19058 19030 18900 ... -0

Time limit reached
Best objective 1.905800000000e+04, best bound 1.975600000000e+04, gap 3.6625%
